w = 16;
n = 10;
measures = [|7, 9,
|3, 12,
|3, 10,
|4, 7,
|3, 8,
|3, 7,
|3, 6,
|3, 5,
|3, 4,
|3, 3,
|];
initial_x = [0, 7, 10, 0, 4, 7, 10, 13, 0, 3];
initial_y = [0, 0, 0, 12, 12, 12, 12, 12, 20, 20];